\ENCODING=ISO-8859-1
\Problem name: TSP

Minimize
 obj1: 0 x(1,1) + 4727 x(1,2) + 1204 x(1,3) + 6363 x(1,4) + 3657 x(1,5)
       + 3130 x(1,6) + 2414 x(1,7) + 562 x(1,8) + 462 x(1,9) + 5654 x(1,10)
       + 4727 x(2,1) + 3587 x(2,3) + 2012 x(2,4) + 1841 x(2,5) + 6977 x(2,6)
       + 6500 x(2,7) + 5187 x(2,8) + 5028 x(2,9) + 2327 x(2,10) + 1204 x(3,1)
       + 3587 x(3,2) + 5162 x(3,4) + 2458 x(3,5) + 3677 x(3,6) + 3070 x(3,7)
       + 1742 x(3,8) + 1444 x(3,9) + 4462 x(3,10) + 6363 x(4,1) + 2012 x(4,2)
       + 5162 x(4,3) + 2799 x(4,5) + 8064 x(4,6) + 7727 x(4,7) + 6877 x(4,8)
       + 6580 x(4,9) + 1402 x(4,10) + 3657 x(5,1) + 1841 x(5,2) + 2458 x(5,3)
       + 2799 x(5,4) + 5329 x(5,6) + 4946 x(5,7) + 4200 x(5,8) + 3824 x(5,9)
       + 2011 x(5,10) + 3130 x(6,1) + 6977 x(6,2) + 3677 x(6,3) + 8064 x(6,4)
       + 5329 x(6,5) + 743 x(6,7) + 3208 x(6,8) + 2669 x(6,9) + 6928 x(6,10)
       + 2414 x(7,1) + 6500 x(7,2) + 3070 x(7,3) + 7727 x(7,4) + 4946 x(7,5)
       + 743 x(7,6) + 2467 x(7,8) + 1951 x(7,9) + 6673 x(7,10) + 562 x(8,1)
       + 5187 x(8,2) + 1742 x(8,3) + 6877 x(8,4) + 4200 x(8,5) + 3208 x(8,6)
       + 2467 x(8,7) + 718 x(8,9) + 6202 x(8,10) + 462 x(9,1) + 5028 x(9,2)
       + 1444 x(9,3) + 6580 x(9,4) + 3824 x(9,5) + 2669 x(9,6) + 1951 x(9,7)
       + 718 x(9,8) + 5788 x(9,10) + 5654 x(10,1) + 2327 x(10,2) + 4462 x(10,3)
       + 1402 x(10,4) + 2011 x(10,5) + 6928 x(10,6) + 6673 x(10,7)
       + 6202 x(10,8) + 5788 x(10,9) + 0 y(1,1)
Subject To
 x(10,10)#0:   x(2,1) + x(3,1) + x(4,1) + x(5,1) + x(6,1) + x(7,1) + x(8,1)
               + x(9,1) + x(10,1)  = 1
 x(10,10)#1:   x(1,2) + x(3,2) + x(4,2) + x(5,2) + x(6,2) + x(7,2) + x(8,2)
               + x(9,2) + x(10,2)  = 1
 x(10,10)#2:   x(1,3) + x(2,3) + x(4,3) + x(5,3) + x(6,3) + x(7,3) + x(8,3)
               + x(9,3) + x(10,3)  = 1
 x(10,10)#3:   x(1,4) + x(2,4) + x(3,4) + x(5,4) + x(6,4) + x(7,4) + x(8,4)
               + x(9,4) + x(10,4)  = 1
 x(10,10)#4:   x(1,5) + x(2,5) + x(3,5) + x(4,5) + x(6,5) + x(7,5) + x(8,5)
               + x(9,5) + x(10,5)  = 1
 x(10,10)#5:   x(1,6) + x(2,6) + x(3,6) + x(4,6) + x(5,6) + x(7,6) + x(8,6)
               + x(9,6) + x(10,6)  = 1
 x(10,10)#6:   x(1,7) + x(2,7) + x(3,7) + x(4,7) + x(5,7) + x(6,7) + x(8,7)
               + x(9,7) + x(10,7)  = 1
 x(10,10)#7:   x(1,8) + x(2,8) + x(3,8) + x(4,8) + x(5,8) + x(6,8) + x(7,8)
               + x(9,8) + x(10,8)  = 1
 x(10,10)#8:   x(1,9) + x(2,9) + x(3,9) + x(4,9) + x(5,9) + x(6,9) + x(7,9)
               + x(8,9) + x(10,9)  = 1
 x(10,10)#9:   x(1,10) + x(2,10) + x(3,10) + x(4,10) + x(5,10) + x(6,10)
               + x(7,10) + x(8,10) + x(9,10)  = 1
 x(10,10)#10:  x(1,2) + x(1,3) + x(1,4) + x(1,5) + x(1,6) + x(1,7) + x(1,8)
               + x(1,9) + x(1,10)  = 1
 x(10,10)#11:  x(2,1) + x(2,3) + x(2,4) + x(2,5) + x(2,6) + x(2,7) + x(2,8)
               + x(2,9) + x(2,10)  = 1
 x(10,10)#12:  x(3,1) + x(3,2) + x(3,4) + x(3,5) + x(3,6) + x(3,7) + x(3,8)
               + x(3,9) + x(3,10)  = 1
 x(10,10)#13:  x(4,1) + x(4,2) + x(4,3) + x(4,5) + x(4,6) + x(4,7) + x(4,8)
               + x(4,9) + x(4,10)  = 1
 x(10,10)#14:  x(5,1) + x(5,2) + x(5,3) + x(5,4) + x(5,6) + x(5,7) + x(5,8)
               + x(5,9) + x(5,10)  = 1
 x(10,10)#15:  x(6,1) + x(6,2) + x(6,3) + x(6,4) + x(6,5) + x(6,7) + x(6,8)
               + x(6,9) + x(6,10)  = 1
 x(10,10)#16:  x(7,1) + x(7,2) + x(7,3) + x(7,4) + x(7,5) + x(7,6) + x(7,8)
               + x(7,9) + x(7,10)  = 1
 x(10,10)#17:  x(8,1) + x(8,2) + x(8,3) + x(8,4) + x(8,5) + x(8,6) + x(8,7)
               + x(8,9) + x(8,10)  = 1
 x(10,10)#18:  x(9,1) + x(9,2) + x(9,3) + x(9,4) + x(9,5) + x(9,6) + x(9,7)
               + x(9,8) + x(9,10)  = 1
 x(10,10)#19:  x(10,1) + x(10,2) + x(10,3) + x(10,4) + x(10,5) + x(10,6)
               + x(10,7) + x(10,8) + x(10,9)  = 1
 y(10,10)#20:  y(1,2) + y(1,3) + y(1,4) + y(1,5) + y(1,6) + y(1,7) + y(1,8)
               + y(1,9) + y(1,10)  = 9
 y(10,10)#21:  - y(1,2) + y(2,1) + y(2,3) + y(2,4) + y(2,5) + y(2,6) + y(2,7)
               + y(2,8) + y(2,9) + y(2,10) - y(3,2) - y(4,2) - y(5,2) - y(6,2)
               - y(7,2) - y(8,2) - y(9,2) - y(10,2)  = -1
 y(10,10)#22:  - y(1,3) - y(2,3) + y(3,1) + y(3,2) + y(3,4) + y(3,5) + y(3,6)
               + y(3,7) + y(3,8) + y(3,9) + y(3,10) - y(4,3) - y(5,3) - y(6,3)
               - y(7,3) - y(8,3) - y(9,3) - y(10,3)  = -1
 y(10,10)#23:  - y(1,4) - y(2,4) - y(3,4) + y(4,1) + y(4,2) + y(4,3) + y(4,5)
               + y(4,6) + y(4,7) + y(4,8) + y(4,9) + y(4,10) - y(5,4) - y(6,4)
               - y(7,4) - y(8,4) - y(9,4) - y(10,4)  = -1
 y(10,10)#24:  - y(1,5) - y(2,5) - y(3,5) - y(4,5) + y(5,1) + y(5,2) + y(5,3)
               + y(5,4) + y(5,6) + y(5,7) + y(5,8) + y(5,9) + y(5,10) - y(6,5)
               - y(7,5) - y(8,5) - y(9,5) - y(10,5)  = -1
 y(10,10)#25:  - y(1,6) - y(2,6) - y(3,6) - y(4,6) - y(5,6) + y(6,1) + y(6,2)
               + y(6,3) + y(6,4) + y(6,5) + y(6,7) + y(6,8) + y(6,9) + y(6,10)
               - y(7,6) - y(8,6) - y(9,6) - y(10,6)  = -1
 y(10,10)#26:  - y(1,7) - y(2,7) - y(3,7) - y(4,7) - y(5,7) - y(6,7) + y(7,1)
               + y(7,2) + y(7,3) + y(7,4) + y(7,5) + y(7,6) + y(7,8) + y(7,9)
               + y(7,10) - y(8,7) - y(9,7) - y(10,7)  = -1
 y(10,10)#27:  - y(1,8) - y(2,8) - y(3,8) - y(4,8) - y(5,8) - y(6,8) - y(7,8)
               + y(8,1) + y(8,2) + y(8,3) + y(8,4) + y(8,5) + y(8,6) + y(8,7)
               + y(8,9) + y(8,10) - y(9,8) - y(10,8)  = -1
 y(10,10)#28:  - y(1,9) - y(2,9) - y(3,9) - y(4,9) - y(5,9) - y(6,9) - y(7,9)
               - y(8,9) + y(9,1) + y(9,2) + y(9,3) + y(9,4) + y(9,5) + y(9,6)
               + y(9,7) + y(9,8) + y(9,10) - y(10,9)  = -1
 y(10,10)#29:  - y(1,10) - y(2,10) - y(3,10) - y(4,10) - y(5,10) - y(6,10)
               - y(7,10) - y(8,10) - y(9,10) + y(10,1) + y(10,2) + y(10,3)
               + y(10,4) + y(10,5) + y(10,6) + y(10,7) + y(10,8) + y(10,9)
                = -1
 y(10,10)#30:  - 9 x(1,2) + y(1,2) <= 0
 y(10,10)#31:  - 9 x(1,3) + y(1,3) <= 0
 y(10,10)#32:  - 9 x(1,4) + y(1,4) <= 0
 y(10,10)#33:  - 9 x(1,5) + y(1,5) <= 0
 y(10,10)#34:  - 9 x(1,6) + y(1,6) <= 0
 y(10,10)#35:  - 9 x(1,7) + y(1,7) <= 0
 y(10,10)#36:  - 9 x(1,8) + y(1,8) <= 0
 y(10,10)#37:  - 9 x(1,9) + y(1,9) <= 0
 y(10,10)#38:  - 9 x(1,10) + y(1,10) <= 0
 y(10,10)#39:  - 9 x(2,2) + y(2,2) <= 0
 y(10,10)#40:  - 9 x(2,3) + y(2,3) <= 0
 y(10,10)#41:  - 9 x(2,4) + y(2,4) <= 0
 y(10,10)#42:  - 9 x(2,5) + y(2,5) <= 0
 y(10,10)#43:  - 9 x(2,6) + y(2,6) <= 0
 y(10,10)#44:  - 9 x(2,7) + y(2,7) <= 0
 y(10,10)#45:  - 9 x(2,8) + y(2,8) <= 0
 y(10,10)#46:  - 9 x(2,9) + y(2,9) <= 0
 y(10,10)#47:  - 9 x(2,10) + y(2,10) <= 0
 y(10,10)#48:  - 9 x(3,2) + y(3,2) <= 0
 y(10,10)#49:  - 9 x(3,3) + y(3,3) <= 0
 y(10,10)#50:  - 9 x(3,4) + y(3,4) <= 0
 y(10,10)#51:  - 9 x(3,5) + y(3,5) <= 0
 y(10,10)#52:  - 9 x(3,6) + y(3,6) <= 0
 y(10,10)#53:  - 9 x(3,7) + y(3,7) <= 0
 y(10,10)#54:  - 9 x(3,8) + y(3,8) <= 0
 y(10,10)#55:  - 9 x(3,9) + y(3,9) <= 0
 y(10,10)#56:  - 9 x(3,10) + y(3,10) <= 0
 y(10,10)#57:  - 9 x(4,2) + y(4,2) <= 0
 y(10,10)#58:  - 9 x(4,3) + y(4,3) <= 0
 y(10,10)#59:  - 9 x(4,4) + y(4,4) <= 0
 y(10,10)#60:  - 9 x(4,5) + y(4,5) <= 0
 y(10,10)#61:  - 9 x(4,6) + y(4,6) <= 0
 y(10,10)#62:  - 9 x(4,7) + y(4,7) <= 0
 y(10,10)#63:  - 9 x(4,8) + y(4,8) <= 0
 y(10,10)#64:  - 9 x(4,9) + y(4,9) <= 0
 y(10,10)#65:  - 9 x(4,10) + y(4,10) <= 0
 y(10,10)#66:  - 9 x(5,2) + y(5,2) <= 0
 y(10,10)#67:  - 9 x(5,3) + y(5,3) <= 0
 y(10,10)#68:  - 9 x(5,4) + y(5,4) <= 0
 y(10,10)#69:  - 9 x(5,5) + y(5,5) <= 0
 y(10,10)#70:  - 9 x(5,6) + y(5,6) <= 0
 y(10,10)#71:  - 9 x(5,7) + y(5,7) <= 0
 y(10,10)#72:  - 9 x(5,8) + y(5,8) <= 0
 y(10,10)#73:  - 9 x(5,9) + y(5,9) <= 0
 y(10,10)#74:  - 9 x(5,10) + y(5,10) <= 0
 y(10,10)#75:  - 9 x(6,2) + y(6,2) <= 0
 y(10,10)#76:  - 9 x(6,3) + y(6,3) <= 0
 y(10,10)#77:  - 9 x(6,4) + y(6,4) <= 0
 y(10,10)#78:  - 9 x(6,5) + y(6,5) <= 0
 y(10,10)#79:  - 9 x(6,6) + y(6,6) <= 0
 y(10,10)#80:  - 9 x(6,7) + y(6,7) <= 0
 y(10,10)#81:  - 9 x(6,8) + y(6,8) <= 0
 y(10,10)#82:  - 9 x(6,9) + y(6,9) <= 0
 y(10,10)#83:  - 9 x(6,10) + y(6,10) <= 0
 y(10,10)#84:  - 9 x(7,2) + y(7,2) <= 0
 y(10,10)#85:  - 9 x(7,3) + y(7,3) <= 0
 y(10,10)#86:  - 9 x(7,4) + y(7,4) <= 0
 y(10,10)#87:  - 9 x(7,5) + y(7,5) <= 0
 y(10,10)#88:  - 9 x(7,6) + y(7,6) <= 0
 y(10,10)#89:  - 9 x(7,7) + y(7,7) <= 0
 y(10,10)#90:  - 9 x(7,8) + y(7,8) <= 0
 y(10,10)#91:  - 9 x(7,9) + y(7,9) <= 0
 y(10,10)#92:  - 9 x(7,10) + y(7,10) <= 0
 y(10,10)#93:  - 9 x(8,2) + y(8,2) <= 0
 y(10,10)#94:  - 9 x(8,3) + y(8,3) <= 0
 y(10,10)#95:  - 9 x(8,4) + y(8,4) <= 0
 y(10,10)#96:  - 9 x(8,5) + y(8,5) <= 0
 y(10,10)#97:  - 9 x(8,6) + y(8,6) <= 0
 y(10,10)#98:  - 9 x(8,7) + y(8,7) <= 0
 y(10,10)#99:  - 9 x(8,8) + y(8,8) <= 0
 y(10,10)#100: - 9 x(8,9) + y(8,9) <= 0
 y(10,10)#101: - 9 x(8,10) + y(8,10) <= 0
 y(10,10)#102: - 9 x(9,2) + y(9,2) <= 0
 y(10,10)#103: - 9 x(9,3) + y(9,3) <= 0
 y(10,10)#104: - 9 x(9,4) + y(9,4) <= 0
 y(10,10)#105: - 9 x(9,5) + y(9,5) <= 0
 y(10,10)#106: - 9 x(9,6) + y(9,6) <= 0
 y(10,10)#107: - 9 x(9,7) + y(9,7) <= 0
 y(10,10)#108: - 9 x(9,8) + y(9,8) <= 0
 y(10,10)#109: - 9 x(9,9) + y(9,9) <= 0
 y(10,10)#110: - 9 x(9,10) + y(9,10) <= 0
 y(10,10)#111: - 9 x(10,2) + y(10,2) <= 0
 y(10,10)#112: - 9 x(10,3) + y(10,3) <= 0
 y(10,10)#113: - 9 x(10,4) + y(10,4) <= 0
 y(10,10)#114: - 9 x(10,5) + y(10,5) <= 0
 y(10,10)#115: - 9 x(10,6) + y(10,6) <= 0
 y(10,10)#116: - 9 x(10,7) + y(10,7) <= 0
 y(10,10)#117: - 9 x(10,8) + y(10,8) <= 0
 y(10,10)#118: - 9 x(10,9) + y(10,9) <= 0
 y(10,10)#119: - 9 x(10,10) + y(10,10) <= 0
Bounds
      x(1,1) = 0
 0 <= x(1,2) <= 1
 0 <= x(1,3) <= 1
 0 <= x(1,4) <= 1
 0 <= x(1,5) <= 1
 0 <= x(1,6) <= 1
 0 <= x(1,7) <= 1
 0 <= x(1,8) <= 1
 0 <= x(1,9) <= 1
 0 <= x(1,10) <= 1
 0 <= x(2,1) <= 1
      x(2,2) = 0
 0 <= x(2,3) <= 1
 0 <= x(2,4) <= 1
 0 <= x(2,5) <= 1
 0 <= x(2,6) <= 1
 0 <= x(2,7) <= 1
 0 <= x(2,8) <= 1
 0 <= x(2,9) <= 1
 0 <= x(2,10) <= 1
 0 <= x(3,1) <= 1
 0 <= x(3,2) <= 1
      x(3,3) = 0
 0 <= x(3,4) <= 1
 0 <= x(3,5) <= 1
 0 <= x(3,6) <= 1
 0 <= x(3,7) <= 1
 0 <= x(3,8) <= 1
 0 <= x(3,9) <= 1
 0 <= x(3,10) <= 1
 0 <= x(4,1) <= 1
 0 <= x(4,2) <= 1
 0 <= x(4,3) <= 1
      x(4,4) = 0
 0 <= x(4,5) <= 1
 0 <= x(4,6) <= 1
 0 <= x(4,7) <= 1
 0 <= x(4,8) <= 1
 0 <= x(4,9) <= 1
 0 <= x(4,10) <= 1
 0 <= x(5,1) <= 1
 0 <= x(5,2) <= 1
 0 <= x(5,3) <= 1
 0 <= x(5,4) <= 1
      x(5,5) = 0
 0 <= x(5,6) <= 1
 0 <= x(5,7) <= 1
 0 <= x(5,8) <= 1
 0 <= x(5,9) <= 1
 0 <= x(5,10) <= 1
 0 <= x(6,1) <= 1
 0 <= x(6,2) <= 1
 0 <= x(6,3) <= 1
 0 <= x(6,4) <= 1
 0 <= x(6,5) <= 1
      x(6,6) = 0
 0 <= x(6,7) <= 1
 0 <= x(6,8) <= 1
 0 <= x(6,9) <= 1
 0 <= x(6,10) <= 1
 0 <= x(7,1) <= 1
 0 <= x(7,2) <= 1
 0 <= x(7,3) <= 1
 0 <= x(7,4) <= 1
 0 <= x(7,5) <= 1
 0 <= x(7,6) <= 1
      x(7,7) = 0
 0 <= x(7,8) <= 1
 0 <= x(7,9) <= 1
 0 <= x(7,10) <= 1
 0 <= x(8,1) <= 1
 0 <= x(8,2) <= 1
 0 <= x(8,3) <= 1
 0 <= x(8,4) <= 1
 0 <= x(8,5) <= 1
 0 <= x(8,6) <= 1
 0 <= x(8,7) <= 1
      x(8,8) = 0
 0 <= x(8,9) <= 1
 0 <= x(8,10) <= 1
 0 <= x(9,1) <= 1
 0 <= x(9,2) <= 1
 0 <= x(9,3) <= 1
 0 <= x(9,4) <= 1
 0 <= x(9,5) <= 1
 0 <= x(9,6) <= 1
 0 <= x(9,7) <= 1
 0 <= x(9,8) <= 1
      x(9,9) = 0
 0 <= x(9,10) <= 1
 0 <= x(10,1) <= 1
 0 <= x(10,2) <= 1
 0 <= x(10,3) <= 1
 0 <= x(10,4) <= 1
 0 <= x(10,5) <= 1
 0 <= x(10,6) <= 1
 0 <= x(10,7) <= 1
 0 <= x(10,8) <= 1
 0 <= x(10,9) <= 1
      x(10,10) = 0
      y(1,1) = 0
 0 <= y(1,2) <= 9
 0 <= y(1,3) <= 9
 0 <= y(1,4) <= 9
 0 <= y(1,5) <= 9
 0 <= y(1,6) <= 9
 0 <= y(1,7) <= 9
 0 <= y(1,8) <= 9
 0 <= y(1,9) <= 9
 0 <= y(1,10) <= 9
 0 <= y(2,1) <= 9
      y(2,2) = 0
 0 <= y(2,3) <= 9
 0 <= y(2,4) <= 9
 0 <= y(2,5) <= 9
 0 <= y(2,6) <= 9
 0 <= y(2,7) <= 9
 0 <= y(2,8) <= 9
 0 <= y(2,9) <= 9
 0 <= y(2,10) <= 9
 0 <= y(3,1) <= 9
 0 <= y(3,2) <= 9
      y(3,3) = 0
 0 <= y(3,4) <= 9
 0 <= y(3,5) <= 9
 0 <= y(3,6) <= 9
 0 <= y(3,7) <= 9
 0 <= y(3,8) <= 9
 0 <= y(3,9) <= 9
 0 <= y(3,10) <= 9
 0 <= y(4,1) <= 9
 0 <= y(4,2) <= 9
 0 <= y(4,3) <= 9
      y(4,4) = 0
 0 <= y(4,5) <= 9
 0 <= y(4,6) <= 9
 0 <= y(4,7) <= 9
 0 <= y(4,8) <= 9
 0 <= y(4,9) <= 9
 0 <= y(4,10) <= 9
 0 <= y(5,1) <= 9
 0 <= y(5,2) <= 9
 0 <= y(5,3) <= 9
 0 <= y(5,4) <= 9
      y(5,5) = 0
 0 <= y(5,6) <= 9
 0 <= y(5,7) <= 9
 0 <= y(5,8) <= 9
 0 <= y(5,9) <= 9
 0 <= y(5,10) <= 9
 0 <= y(6,1) <= 9
 0 <= y(6,2) <= 9
 0 <= y(6,3) <= 9
 0 <= y(6,4) <= 9
 0 <= y(6,5) <= 9
      y(6,6) = 0
 0 <= y(6,7) <= 9
 0 <= y(6,8) <= 9
 0 <= y(6,9) <= 9
 0 <= y(6,10) <= 9
 0 <= y(7,1) <= 9
 0 <= y(7,2) <= 9
 0 <= y(7,3) <= 9
 0 <= y(7,4) <= 9
 0 <= y(7,5) <= 9
 0 <= y(7,6) <= 9
      y(7,7) = 0
 0 <= y(7,8) <= 9
 0 <= y(7,9) <= 9
 0 <= y(7,10) <= 9
 0 <= y(8,1) <= 9
 0 <= y(8,2) <= 9
 0 <= y(8,3) <= 9
 0 <= y(8,4) <= 9
 0 <= y(8,5) <= 9
 0 <= y(8,6) <= 9
 0 <= y(8,7) <= 9
      y(8,8) = 0
 0 <= y(8,9) <= 9
 0 <= y(8,10) <= 9
 0 <= y(9,1) <= 9
 0 <= y(9,2) <= 9
 0 <= y(9,3) <= 9
 0 <= y(9,4) <= 9
 0 <= y(9,5) <= 9
 0 <= y(9,6) <= 9
 0 <= y(9,7) <= 9
 0 <= y(9,8) <= 9
      y(9,9) = 0
 0 <= y(9,10) <= 9
 0 <= y(10,1) <= 9
 0 <= y(10,2) <= 9
 0 <= y(10,3) <= 9
 0 <= y(10,4) <= 9
 0 <= y(10,5) <= 9
 0 <= y(10,6) <= 9
 0 <= y(10,7) <= 9
 0 <= y(10,8) <= 9
 0 <= y(10,9) <= 9
      y(10,10) = 0
Binaries
 x(1,1)  x(1,2)  x(1,3)  x(1,4)  x(1,5)  x(1,6)  x(1,7)  x(1,8)  x(1,9) 
 x(1,10)  x(2,1)  x(2,2)  x(2,3)  x(2,4)  x(2,5)  x(2,6)  x(2,7)  x(2,8) 
 x(2,9)  x(2,10)  x(3,1)  x(3,2)  x(3,3)  x(3,4)  x(3,5)  x(3,6)  x(3,7) 
 x(3,8)  x(3,9)  x(3,10)  x(4,1)  x(4,2)  x(4,3)  x(4,4)  x(4,5)  x(4,6) 
 x(4,7)  x(4,8)  x(4,9)  x(4,10)  x(5,1)  x(5,2)  x(5,3)  x(5,4)  x(5,5) 
 x(5,6)  x(5,7)  x(5,8)  x(5,9)  x(5,10)  x(6,1)  x(6,2)  x(6,3)  x(6,4) 
 x(6,5)  x(6,6)  x(6,7)  x(6,8)  x(6,9)  x(6,10)  x(7,1)  x(7,2)  x(7,3) 
 x(7,4)  x(7,5)  x(7,6)  x(7,7)  x(7,8)  x(7,9)  x(7,10)  x(8,1)  x(8,2) 
 x(8,3)  x(8,4)  x(8,5)  x(8,6)  x(8,7)  x(8,8)  x(8,9)  x(8,10)  x(9,1) 
 x(9,2)  x(9,3)  x(9,4)  x(9,5)  x(9,6)  x(9,7)  x(9,8)  x(9,9)  x(9,10) 
 x(10,1)  x(10,2)  x(10,3)  x(10,4)  x(10,5)  x(10,6)  x(10,7)  x(10,8) 
 x(10,9)  x(10,10) 
End
